&CONTROL
  calculation  = "bands",
  prefix       = "Si",
  pseudo_dir   = "../../pseudo",
  outdir       = "./tmp",
  restart_mode = "from_scratch"
  verbosity    = 'high'
  tprnfor = .true.
  wf_collect=.true.
/
&SYSTEM
  ibrav     = 2,
  celldm(1) = 10.2,
  nat       = 2,
  ntyp      = 1,
  ecutwfc   = 50 
  nbnd      = 10
/
&ELECTRONS
  conv_thr    = 1.D-8,
  mixing_beta = 0.7D0	,
/
ATOMIC_SPECIES
 Si  28.086  Si.pz-vbc.UPF
ATOMIC_POSITIONS
 Si 0.00 0.00 0.00
 Si 0.25 0.25 0.25

 K_POINTS crystal
         100
        0.0000000000    0.0000000000    0.0000000000    1.0
        0.0133928571    0.0267857143    0.0133928571    1.0
        0.0267857143    0.0535714286    0.0267857143    1.0
        0.0401785714    0.0803571429    0.0401785714    1.0
        0.0535714286    0.1071428571    0.0535714286    1.0
        0.0669642857    0.1339285714    0.0669642857    1.0
        0.0803571429    0.1607142857    0.0803571429    1.0
        0.0937500000    0.1875000000    0.0937500000    1.0
        0.1071428571    0.2142857143    0.1071428571    1.0
        0.1205357143    0.2410714286    0.1205357143    1.0
        0.1339285714    0.2678571429    0.1339285714    1.0
        0.1473214286    0.2946428571    0.1473214286    1.0
        0.1607142857    0.3214285714    0.1607142857    1.0
        0.1741071429    0.3482142857    0.1741071429    1.0
        0.1875000000    0.3750000000    0.1875000000    1.0
        0.2008928571    0.4017857143    0.2008928571    1.0
        0.2142857143    0.4285714286    0.2142857143    1.0
        0.2276785714    0.4553571429    0.2276785714    1.0
        0.2410714286    0.4821428571    0.2410714286    1.0
        0.2544642857    0.5089285714    0.2544642857    1.0
        0.2678571429    0.5357142857    0.2678571429    1.0
        0.2812500000    0.5625000000    0.2812500000    1.0
        0.2946428571    0.5892857143    0.2946428571    1.0
        0.3080357143    0.6160714286    0.3080357143    1.0
        0.3214285714    0.6428571429    0.3214285714    1.0
        0.3348214286    0.6696428571    0.3348214286    1.0
        0.3482142857    0.6964285714    0.3482142857    1.0
        0.3616071429    0.7232142857    0.3616071429    1.0
        0.3750000000    0.7500000000    0.3750000000    1.0
        0.3809523810    0.7380952381    0.3571428571    1.0
        0.3869047619    0.7261904762    0.3392857143    1.0
        0.3928571429    0.7142857143    0.3214285714    1.0
        0.3988095238    0.7023809524    0.3035714286    1.0
        0.4047619048    0.6904761905    0.2857142857    1.0
        0.4107142857    0.6785714286    0.2678571429    1.0
        0.4166666667    0.6666666667    0.2500000000    1.0
        0.4226190476    0.6547619048    0.2321428571    1.0
        0.4285714286    0.6428571429    0.2142857143    1.0
        0.4345238095    0.6309523810    0.1964285714    1.0
        0.4404761905    0.6190476190    0.1785714286    1.0
        0.4464285714    0.6071428571    0.1607142857    1.0
        0.4523809524    0.5952380952    0.1428571429    1.0
        0.4583333333    0.5833333333    0.1250000000    1.0
        0.4642857143    0.5714285714    0.1071428571    1.0
        0.4702380952    0.5595238095    0.0892857143    1.0
        0.4761904762    0.5476190476    0.0714285714    1.0
        0.4821428571    0.5357142857    0.0535714286    1.0
        0.4880952381    0.5238095238    0.0357142857    1.0
        0.4940476190    0.5119047619    0.0178571429    1.0
        0.5000000000    0.5000000000    0.0000000000    1.0
        0.4814814815    0.4814814815    0.0000000000    1.0
        0.4629629630    0.4629629630    0.0000000000    1.0
        0.4444444444    0.4444444444    0.0000000000    1.0
        0.4259259259    0.4259259259    0.0000000000    1.0
        0.4074074074    0.4074074074    0.0000000000    1.0
        0.3888888889    0.3888888889    0.0000000000    1.0
        0.3703703704    0.3703703704    0.0000000000    1.0
        0.3518518519    0.3518518519    0.0000000000    1.0
        0.3333333333    0.3333333333    0.0000000000    1.0
        0.3148148148    0.3148148148    0.0000000000    1.0
        0.2962962963    0.2962962963    0.0000000000    1.0
        0.2777777778    0.2777777778    0.0000000000    1.0
        0.2592592593    0.2592592593    0.0000000000    1.0
        0.2407407407    0.2407407407    0.0000000000    1.0
        0.2222222222    0.2222222222    0.0000000000    1.0
        0.2037037037    0.2037037037    0.0000000000    1.0
        0.1851851852    0.1851851852    0.0000000000    1.0
        0.1666666667    0.1666666667    0.0000000000    1.0
        0.1481481481    0.1481481481    0.0000000000    1.0
        0.1296296296    0.1296296296    0.0000000000    1.0
        0.1111111111    0.1111111111    0.0000000000    1.0
        0.0925925926    0.0925925926    0.0000000000    1.0
        0.0740740741    0.0740740741    0.0000000000    1.0
        0.0555555556    0.0555555556    0.0000000000    1.0
        0.0370370370    0.0370370370    0.0000000000    1.0
        0.0185185185    0.0185185185    0.0000000000    1.0
        0.0000000000    0.0000000000    0.0000000000    1.0
        0.0217391304    0.0217391304    0.0217391304    1.0
        0.0434782609    0.0434782609    0.0434782609    1.0
        0.0652173913    0.0652173913    0.0652173913    1.0
        0.0869565217    0.0869565217    0.0869565217    1.0
        0.1086956522    0.1086956522    0.1086956522    1.0
        0.1304347826    0.1304347826    0.1304347826    1.0
        0.1521739130    0.1521739130    0.1521739130    1.0
        0.1739130435    0.1739130435    0.1739130435    1.0
        0.1956521739    0.1956521739    0.1956521739    1.0
        0.2173913043    0.2173913043    0.2173913043    1.0
        0.2391304348    0.2391304348    0.2391304348    1.0
        0.2608695652    0.2608695652    0.2608695652    1.0
        0.2826086957    0.2826086957    0.2826086957    1.0
        0.3043478261    0.3043478261    0.3043478261    1.0
        0.3260869565    0.3260869565    0.3260869565    1.0
        0.3478260870    0.3478260870    0.3478260870    1.0
        0.3695652174    0.3695652174    0.3695652174    1.0
        0.3913043478    0.3913043478    0.3913043478    1.0
        0.4130434783    0.4130434783    0.4130434783    1.0
        0.4347826087    0.4347826087    0.4347826087    1.0
        0.4565217391    0.4565217391    0.4565217391    1.0
        0.4782608696    0.4782608696    0.4782608696    1.0
        0.5000000000    0.5000000000    0.5000000000    1.0








