&CONTROL
  calculation  = "relax",
  prefix       = "x_0.125",
  pseudo_dir   = "/marconi/home/userexternal/dgrassan/PSEUDO/",
  outdir       = "./tmp",
  restart_mode = "from_scratch"
  verbosity    = "high"
  tprnfor = .true.
  wf_collect=.true.
/
&SYSTEM
  ibrav     = 2,
  celldm(1) = 25.087, 
  nat       = 16,
  ntyp      = 3,
  ecutwfc   = 80
  ecutrho   = 800
  ! nbnd      = 
  lspinorb  = .true.
  noncolin  = .true.
  occupations       = 'smearing'
  smearing          = 'fermi-dirac'
  degauss           = 0.0016749326
/
&ELECTRONS
  conv_thr    = 1.D-8,
  mixing_beta = 0.7D0	,
/
&IONS
  ion_dynamics = "bfgs"
/
ATOMIC_SPECIES
 Hg  1 Hg.rel-pbe-n-rrkjus_psl.1.0.0.UPF
 Cd  1 Cd.rel-pbe-n-rrkjus_psl.1.0.0.UPF
 Te  1 Te.rel-pbe-n-rrkjus_psl.1.0.0.UPF
ATOMIC_POSITIONS {bohr}
Cd   0.        0.        0.     
Te   3.13125   3.13125   3.13125
Hg  -6.2625    6.2625    0.     
Te  -3.13125   9.39375   3.13125
Hg   0.        6.2625    6.2625 
Te   3.13125   9.39375   9.39375
Hg  -6.2625   12.525     6.2625 
Te  -3.13125  15.65625   9.39375
Hg  -6.2625    0.        6.2625 
Te  -3.13125   3.13125   9.39375
Hg -12.525     6.2625    6.2625 
Te  -9.39375   9.39375   9.39375
Hg  -6.2625    6.2625   12.525  
Te  -3.13125   9.39375  15.65625
Hg -12.525    12.525    12.525  
Te  -9.39375  15.65625  15.65625

K_POINTS {automatic}
2 2 2 1 1 1
